cost: 619.95
Route 1:           0   35   48   11   36   31    5   28   25   18   30   12   22   13   29   10    0
Route 2:           0   44   49   23   20   17   14    1   21   37   15   41   38   42   19    0
Route 3:           0   46   32   39    0
Route 4:           0   50   33    6   43    9   40   26   24   45    8   47   27   16   34    4    3    7    2    0
